46
raw_data/rcpsp/CV.xlsx cv46
Time limit set to 60 seconds
Running CP solver
/home/omastto1/General-Optimization-Solver/src/solvers/rcpsp.py:31(stream:44:6): Warning: Cumulative expression 'pulse': height is zero, expression is zero everywhere.
                                                                                            VarCumulAtom_85 = pulse("0", 0)
/home/omastto1/General-Optimization-Solver/src/solvers/rcpsp.py:31(stream:44:396): Warning: Cumulative expression 'pulse': height is zero, expression is zero everywhere.
                                                                                              VarCumulAtom_110 = pulse("25", 0)
/home/omastto1/General-Optimization-Solver/src/solvers/rcpsp.py:31(stream:45:6): Warning: Cumulative expression 'pulse': height is zero, expression is zero everywhere.
                                                                                            VarCumulAtom_114 = pulse("0", 0)
/home/omastto1/General-Optimization-Solver/src/solvers/rcpsp.py:31(stream:45:401): Warning: Cumulative expression 'pulse': height is zero, expression is zero everywhere.
                                                                                              VarCumulAtom_139 = pulse("25", 0)
/home/omastto1/General-Optimization-Solver/src/solvers/rcpsp.py:31(stream:46:6): Warning: Cumulative expression 'pulse': height is zero, expression is zero everywhere.
                                                                                            VarCumulAtom_143 = pulse("0", 0)
/home/omastto1/General-Optimization-Solver/src/solvers/rcpsp.py:31(stream:46:410): Warning: Cumulative expression 'pulse': height is zero, expression is zero everywhere.
                                                                                              VarCumulAtom_168 = pulse("25", 0)
 ! --------------------------------------------------- CP Optimizer 20.1.0.0 --
 ! Minimization problem - 27 variables, 50 constraints
 ! TimeLimit            = 60
 ! Workers              = 14
 ! LogVerbosity         = Terse
 ! Initial process time : 0.00s (0.00s extraction + 0.00s propagation)
 !  . Log search space  : 142.1 (before), 142.1 (after)
 !  . Memory usage      : 583.5 kB (before), 583.5 kB (after)
 ! Using parallel search with 14 workers.
 ! ----------------------------------------------------------------------------
 !          Best Branches  Non-fixed    W       Branch decision
                        0         27                 -
 + New bound is 29
 ! Using iterative diving.
 ! Using temporal relaxation.
 *            61       56  1.05s        1      (gap is 52.46%)
 *            60      110  1.05s        1      (gap is 51.67%)
 *            51      164  1.05s        1      (gap is 43.14%)
              51     3015          7    1            -
 + New bound is 44 (gap is 13.73%)
 ! Using failure-directed search.
 *            49     4747  1.05s        2      (gap is 10.20%)
 *            48    12304  2.09s        7      (gap is 8.33%)
 ! ----------------------------------------------------------------------------
 ! Search terminated by limit, 5 solutions found.
 ! Best objective         : 48 (gap is 8.33%)
 ! Best bound             : 44
 ! ----------------------------------------------------------------------------
 ! Number of branches     : 8503290
 ! Number of fails        : 2490460
 ! Total memory usage     : 10.4 MB (10.3 MB CP Optimizer + 0.1 MB Concert)
 ! Time spent in solve    : 60.04s (60.04s engine + 0.00s extraction)
 ! Search speed (br. / s) : 141650.7
 ! ----------------------------------------------------------------------------
(44,)
(0.0833333,)
(48,)
Objective value: 48
Solution is 2.1 % worse than the lower bound.
Feasible solution found
